networks/zoo_144_1989/zoo_144_1989-lower.txt
Number of groups: 68
Flow 1: {1 3 0} {3 76 0} 
Flow 2: {3 59 0} {59 4 0} {4 77 0} 
Flow 3: {4 7 0} {7 6 0} {6 79 0} 
Flow 4: {59 12 0} {12 85 0} 
Flow 5: {49 15 0} {15 14 0} {14 87 0} 
Flow 6: {59 49 0} {49 18 0} {18 91 0} 
Flow 7: {49 22 0} {22 23 0} {23 96 0} 
Flow 8: {22 25 0} {25 98 0} 
Flow 9: {14 30 0} {30 103 0} 
Flow 10: {59 36 0} {36 33 0} {33 106 0} 
Flow 11: {49 34 0} {34 107 0} 
Flow 12: {36 109 0} 
Flow 13: {49 40 0} {40 113 0} 
Flow 14: {40 41 0} {41 114 0} 
Flow 15: {49 42 0} {42 115 0} 
Flow 16: {49 44 0} {44 117 0} 
Flow 17: {49 48 0} {48 121 0} 
Flow 18: {49 122 0} 
Flow 19: {49 50 0} {50 123 0} 
Flow 20: {36 51 0} {51 124 0} 
Flow 21: {59 58 0} {58 131 0} 
Flow 22: {59 132 0} 
Flow 23: {59 71 0} {71 62 0} {62 135 0} 
Flow 24: {59 63 0} {63 136 0} 
Flow 25: {59 64 0} {64 137 0} 
Flow 26: {59 67 0} {67 140 0} 
Flow 27: {67 68 0} {68 141 0} 
Flow 28: {59 70 0} {70 143 0} 
Flow 29: {71 144 0} 
Flow 30: {2 59 0} {59 3 0} Flow 42: {59 37 0} {37 110 0} 
Flow 60: {59 2 0} {2 75 0} 
Flow 62: {7 5 0} {5 78 0} 
Flow 64: {15 9 0} {9 82 0} 
Flow 65: {14 10 0} {10 83 0} 
Flow 67: {14 13 0} {13 86 0} 
Flow 69: {49 16 0} {16 89 0} 
Flow 70: {18 17 0} {17 90 0} 
Flow 72: {49 19 0} {19 92 0} 
Flow 73: {49 20 0} {20 93 0} 
Flow 74: {22 95 0} 
Flow 77: {49 27 0} {27 100 0} 
Flow 78: {49 29 0} {29 102 0} 
Flow 80: {14 31 0} {31 104 0} 
Flow 83: {36 35 0} {35 108 0} 
Flow 86: {36 38 0} {38 111 0} 
Flow 91: {49 45 0} {45 118 0} 
Flow 96: {36 52 0} {52 125 0} 
Flow 97: {36 53 0} {53 126 0} 
Flow 98: {49 57 0} {57 130 0} 
Flow 101: {42 60 0} {60 133 0} 
Flow 102: {49 61 0} {61 134 0} 
Flow 106: {64 65 0} {65 138 0} 
Flow 109: {59 69 0} {69 142 0} 
Flow 112: {4 59 0} Flow 116: {7 80 0} 
Flow 143: {42 43 0} {43 116 0} 
Flow 161: {59 66 0} {66 139 0} 
Flow 167: {5 7 0} {7 4 0} Flow 196: {6 7 0} Flow 229: {3 1 0} {1 74 0} 
Flow 240: {15 88 0} 
Flow 246: {49 21 0} {21 94 0} 
Flow 249: {49 24 0} {24 97 0} 
Flow 267: {34 46 0} {46 119 0} 
Flow 268: {59 47 0} {47 120 0} 
Flow 290: {8 7 0} Flow 299: {9 15 0} {15 49 0} {49 59 0} Flow 318: {10 14 0} {14 15 0} Flow 323: {11 12 0} {12 59 0} Flow 407: {13 14 0} Flow 433: {7 8 0} {8 81 0} 
Flow 450: {59 54 0} {54 28 0} {28 101 0} 
Flow 474: {36 55 0} {55 128 0} 
Flow 475: {49 56 0} {56 129 0} 
Flow 519: {16 49 0} Flow 547: {17 18 0} {18 49 0} Flow 597: {19 49 0} Flow 626: {20 49 0} Flow 655: {21 49 0} Flow 688: {22 49 0} Flow 734: {23 22 0} Flow 739: {24 49 0} Flow 773: {25 22 0} Flow 809: {26 49 0} Flow 816: {27 49 0} Flow 830: {28 54 0} {54 59 0} Flow 854: {29 49 0} Flow 884: {30 14 0} Flow 891: {32 14 0} Flow 896: {33 36 0} {36 59 0} Flow 933: {34 49 0} Flow 983: {35 36 0} Flow 1036: {49 26 0} {26 99 0} 
Flow 1047: {36 39 0} {39 112 0} 
Flow 1079: {37 59 0} Flow 1089: {38 36 0} Flow 1122: {39 36 0} Flow 1138: {40 49 0} Flow 1141: {41 40 0} Flow 1174: {42 49 0} Flow 1235: {43 42 0} Flow 1269: {45 49 0} Flow 1301: {46 34 0} Flow 1334: {47 59 0} Flow 1427: {50 49 0} Flow 1454: {53 36 0} Flow 1536: {55 36 0} Flow 1538: {56 49 0} Flow 1539: {57 49 0} Flow 1569: {58 59 0} Flow 1668: {60 42 0} Flow 1697: {61 49 0} Flow 1731: {62 71 0} {71 59 0} Flow 1760: {63 59 0} Flow 1767: {64 59 0} Flow 1817: {65 64 0} Flow 1843: {66 59 0} Flow 1877: {67 59 0} Flow 1927: {68 67 0} Flow 1928: {69 59 0} Flow 1931: {70 59 0} Time taken running everything: 0 seconds
